-1 -1 -1 -1 -1 -1 -1 -1 -1 -1 -1 -1 -1 -1 -1 -1 -1 -1 -1 -1 -1 -1 -1 -1 -1 -1 -1 0 -1 -1 -1 -1 -1 -1 -1 -1 -1 -1 -1 -1 -1 -1 -1 -1 -1 -1 -1 -1 -1 -1 -1 -1 -1 -1 -1 -1 -1 -1 -1 -1 -1 -1 -1 -1
-1 -1 -1 -1 -1 -1 -1 -1 -1 -1 -1 -1 -1 -1 -1 -1 -1 -1 -1 -1 -1 0 -1 -1 -1 -1 -1 0 -1 -1 -1 -1 -1 -1 -1 -1 -1 -1 -1 -1 -1 -1 -1 -1 -1 -1 -1 -1 -1 -1 -1 -1 -1 -1 -1 -1 -1 -1 -1 -1 -1 -1 -1 -1
-1 -1 -1 -1 -1 -1 -1 -1 -1 -1 -1 -1 -1 -1 -1 -1 -1 -1 -1 -1 -1 0 -1 -1 -1 -1 -1 0 -1 -1 -1 -1 -1 -1 -1 -1 -1 -1 -1 -1 -1 -1 -1 -1 0 -1 -1 -1 -1 -1 -1 -1 -1 -1 -1 -1 -1 -1 -1 -1 -1 -1 -1 -1
-1 -1 -1 -1 -1 -1 -1 -1 -1 -1 -1 -1 -1 -1 -1 -1 -1 -1 -1 -1 -1 0 -1 -1 -1 -1 -1 0 -1 -1 -1 -1 -1 0 -1 -1 -1 -1 -1 -1 -1 -1 -1 -1 0 -1 -1 -1 -1 -1 -1 -1 -1 -1 -1 -1 -1 -1 -1 -1 -1 -1 -1 -1
-1 -1 -1 -1 -1 -1 -1 -1 -1 -1 -1 -1 -1 -1 -1 -1 -1 -1 -1 -1 -1 0 -1 -1 -1 -1 -1 0 -1 -1 -1 -1 -1 0 -1 -1 -1 -1 -1 -1 -1 -1 -1 -1 0 -1 -1 -1 -1 -1 0 -1 -1 -1 -1 -1 -1 -1 -1 -1 -1 -1 -1 -1
-1 -1 -1 -1 -1 -1 -1 -1 -1 -1 -1 -1 -1 -1 -1 -1 -1 -1 -1 -1 -1 0 -1 -1 -1 -1 -1 0 1 -1 -1 -1 -1 0 -1 -1 -1 -1 -1 -1 -1 -1 -1 -1 0 -1 -1 -1 -1 -1 0 -1 -1 -1 -1 -1 -1 -1 -1 -1 -1 -1 -1 -1
-1 -1 -1 -1 -1 -1 -1 -1 -1 -1 -1 -1 -1 -1 -1 -1 -1 -1 -1 -1 -1 0 -1 -1 -1 -1 -1 0 1 -1 -1 -1 -1 0 1 -1 -1 -1 -1 -1 -1 -1 -1 -1 0 -1 -1 -1 -1 -1 0 -1 -1 -1 -1 -1 -1 -1 -1 -1 -1 -1 -1 -1
-1 -1 -1 -1 -1 -1 -1 -1 -1 -1 -1 -1 -1 -1 -1 -1 -1 -1 -1 -1 -1 0 -1 -1 -1 -1 -1 0 1 -1 -1 -1 -1 0 1 -1 -1 -1 -1 -1 -1 -1 -1 -1 0 1 -1 -1 -1 -1 0 -1 -1 -1 -1 -1 -1 -1 -1 -1 -1 -1 -1 -1
-1 -1 -1 -1 -1 -1 -1 -1 -1 -1 -1 -1 -1 -1 -1 -1 -1 -1 -1 -1 -1 0 -1 -1 -1 -1 -1 0 1 -1 -1 -1 -1 0 1 -1 -1 -1 -1 -1 -1 -1 -1 -1 0 1 -1 -1 -1 -1 0 1 -1 -1 -1 -1 -1 -1 -1 -1 -1 -1 -1 -1
-1 -1 -1 -1 -1 -1 -1 -1 -1 -1 -1 -1 -1 -1 -1 -1 -1 1 -1 -1 -1 0 -1 -1 -1 -1 -1 0 1 -1 -1 -1 -1 0 1 -1 -1 -1 -1 -1 -1 -1 -1 -1 0 1 -1 -1 -1 -1 0 1 -1 -1 -1 -1 -1 -1 -1 -1 -1 -1 -1 -1
-1 -1 -1 -1 -1 -1 -1 -1 -1 -1 -1 -1 -1 -1 -1 1 -1 1 -1 -1 -1 0 -1 -1 -1 -1 -1 0 1 -1 -1 -1 -1 0 1 -1 -1 -1 -1 -1 -1 -1 -1 -1 0 1 -1 -1 -1 -1 0 1 -1 -1 -1 -1 -1 -1 -1 -1 -1 -1 -1 -1
-1 -1 -1 -1 -1 -1 -1 -1 -1 -1 -1 -1 -1 -1 -1 1 -1 1 -1 -1 -1 0 -1 -1 -1 -1 -1 0 1 -1 -1 -1 -1 0 1 2 -1 -1 -1 -1 -1 -1 -1 -1 0 1 -1 -1 -1 -1 0 1 -1 -1 -1 -1 -1 -1 -1 -1 -1 -1 -1 -1
-1 -1 -1 -1 -1 -1 -1 -1 -1 -1 -1 -1 -1 -1 -1 1 -1 1 -1 -1 2 0 -1 -1 -1 -1 -1 0 1 -1 -1 -1 -1 0 1 2 -1 -1 -1 -1 -1 -1 -1 -1 0 1 -1 -1 -1 -1 0 1 -1 -1 -1 -1 -1 -1 -1 -1 -1 -1 -1 -1
-1 -1 -1 -1 -1 -1 -1 -1 -1 -1 -1 -1 -1 -1 -1 1 -1 1 -1 -1 2 0 -1 -1 -1 -1 -1 0 1 -1 2 -1 -1 0 1 2 -1 -1 -1 -1 -1 -1 -1 -1 0 1 -1 -1 -1 -1 0 1 -1 -1 -1 -1 -1 -1 -1 -1 -1 -1 -1 -1
-1 -1 -1 -1 -1 -1 -1 -1 -1 2 -1 -1 -1 -1 -1 1 -1 1 -1 -1 2 0 -1 -1 -1 -1 -1 0 1 -1 2 -1 -1 0 1 2 -1 -1 -1 -1 -1 -1 -1 -1 0 1 -1 -1 -1 -1 0 1 -1 -1 -1 -1 -1 -1 -1 -1 -1 -1 -1 -1
-1 -1 -1 -1 -1 -1 -1 -1 -1 2 -1 -1 -1 -1 -1 1 -1 1 -1 -1 2 0 -1 -1 -1 -1 -1 0 1 -1 2 -1 -1 0 1 2 -1 -1 -1 -1 -1 -1 -1 -1 0 1 -1 -1 -1 -1 0 1 -1 -1 -1 2 -1 -1 -1 -1 -1 -1 -1 -1
-1 -1 -1 -1 -1 -1 -1 -1 -1 2 -1 -1 -1 -1 -1 1 -1 1 -1 -1 2 0 -1 -1 -1 -1 -1 0 1 -1 2 -1 -1 0 1 2 -1 -1 -1 -1 -1 -1 -1 -1 0 1 -1 -1 -1 -1 0 1 -1 -1 -1 2 -1 -1 -1 -1 -1 2 -1 -1
-1 -1 -1 -1 -1 -1 -1 -1 -1 2 -1 -1 -1 -1 -1 1 -1 1 -1 -1 2 0 -1 -1 -1 -1 -1 0 1 -1 2 -1 -1 0 1 2 -1 -1 -1 -1 2 -1 -1 -1 0 1 -1 -1 -1 -1 0 1 -1 -1 -1 2 -1 -1 -1 -1 -1 2 -1 -1
-1 -1 -1 -1 -1 -1 -1 -1 -1 2 -1 -1 -1 -1 -1 1 -1 1 -1 -1 2 0 -1 -1 -1 -1 -1 0 1 -1 2 -1 -1 0 1 2 3 -1 -1 -1 2 -1 -1 -1 0 1 -1 -1 -1 -1 0 1 -1 -1 -1 2 -1 -1 -1 -1 -1 2 -1 -1
-1 -1 -1 -1 -1 -1 -1 -1 -1 2 -1 -1 -1 -1 -1 1 -1 1 -1 -1 2 0 -1 -1 -1 -1 3 0 1 -1 2 -1 -1 0 1 2 3 -1 -1 -1 2 -1 -1 -1 0 1 -1 -1 -1 -1 0 1 -1 -1 -1 2 -1 -1 -1 -1 -1 2 -1 -1
-1 -1 -1 -1 -1 -1 -1 -1 -1 2 -1 -1 -1 -1 -1 1 -1 1 -1 -1 2 0 -1 -1 -1 -1 3 0 1 -1 2 -1 -1 0 1 2 3 -1 -1 -1 2 -1 -1 -1 0 1 -1 -1 -1 3 0 1 -1 -1 -1 2 -1 -1 -1 -1 -1 2 -1 -1
-1 -1 -1 -1 -1 -1 -1 -1 -1 2 -1 -1 -1 -1 -1 1 -1 1 -1 -1 2 0 -1 -1 -1 -1 3 0 1 -1 2 -1 -1 0 1 2 3 -1 -1 -1 2 -1 -1 -1 0 1 3 -1 -1 3 0 1 -1 -1 -1 2 -1 -1 -1 -1 -1 2 -1 -1
-1 -1 -1 -1 -1 -1 -1 -1 -1 2 -1 3 -1 -1 -1 1 -1 1 -1 -1 2 0 -1 -1 -1 -1 3 0 1 -1 2 -1 -1 0 1 2 3 -1 -1 -1 2 -1 -1 -1 0 1 3 -1 -1 3 0 1 -1 -1 -1 2 -1 -1 -1 -1 -1 2 -1 -1
-1 -1 -1 -1 -1 -1 -1 -1 -1 2 -1 3 -1 -1 -1 1 3 1 -1 -1 2 0 -1 -1 -1 -1 3 0 1 -1 2 -1 -1 0 1 2 3 -1 -1 -1 2 -1 -1 -1 0 1 3 -1 -1 3 0 1 -1 -1 -1 2 -1 -1 -1 -1 -1 2 -1 -1
-1 -1 -1 -1 -1 -1 -1 -1 -1 2 -1 3 -1 -1 -1 1 3 1 -1 4 2 0 -1 -1 -1 -1 3 0 1 -1 2 -1 -1 0 1 2 3 -1 -1 -1 2 -1 -1 -1 0 1 3 -1 -1 3 0 1 -1 -1 -1 2 -1 -1 -1 -1 -1 2 -1 -1
-1 -1 -1 -1 -1 -1 -1 -1 -1 2 -1 3 -1 -1 -1 1 3 1 -1 4 2 0 -1 -1 -1 -1 3 0 1 4 2 -1 -1 0 1 2 3 -1 -1 -1 2 -1 -1 -1 0 1 3 -1 -1 3 0 1 -1 -1 -1 2 -1 -1 -1 -1 -1 2 -1 -1
-1 -1 -1 -1 -1 -1 -1 -1 -1 2 -1 3 -1 -1 -1 1 3 1 -1 4 2 0 -1 -1 -1 -1 3 0 1 4 2 -1 -1 0 1 2 3 -1 -1 -1 2 -1 4 -1 0 1 3 -1 -1 3 0 1 -1 -1 -1 2 -1 -1 -1 -1 -1 2 -1 -1
-1 -1 -1 -1 -1 -1 -1 -1 -1 2 -1 3 -1 -1 -1 1 3 1 -1 4 2 0 -1 -1 -1 -1 3 0 1 4 2 -1 -1 0 1 2 3 -1 -1 -1 2 -1 4 -1 0 1 3 -1 -1 3 0 1 4 -1 -1 2 -1 -1 -1 -1 -1 2 -1 -1
-1 -1 -1 -1 -1 -1 -1 -1 -1 2 -1 3 -1 -1 -1 1 3 1 -1 4 2 0 -1 -1 -1 -1 3 0 1 4 2 -1 4 0 1 2 3 -1 -1 -1 2 -1 4 -1 0 1 3 -1 -1 3 0 1 4 -1 -1 2 -1 -1 -1 -1 -1 2 -1 -1
-1 -1 -1 -1 -1 -1 -1 -1 -1 2 -1 3 -1 -1 -1 1 3 1 -1 4 2 0 -1 -1 -1 -1 3 0 1 4 2 -1 4 0 1 2 3 -1 -1 -1 2 -1 4 -1 0 1 3 -1 -1 3 0 1 4 -1 -1 2 -1 -1 -1 -1 -1 2 4 -1
-1 -1 -1 -1 -1 -1 -1 -1 -1 2 -1 3 -1 -1 -1 1 3 1 5 4 2 0 -1 -1 -1 -1 3 0 1 4 2 -1 4 0 1 2 3 -1 -1 -1 2 -1 4 -1 0 1 3 -1 -1 3 0 1 4 -1 -1 2 -1 -1 -1 -1 -1 2 4 -1
-1 -1 -1 -1 -1 -1 -1 -1 -1 2 -1 3 -1 -1 -1 1 3 1 5 4 2 0 -1 -1 -1 -1 3 0 1 4 2 -1 4 0 1 2 3 5 -1 -1 2 -1 4 -1 0 1 3 -1 -1 3 0 1 4 -1 -1 2 -1 -1 -1 -1 -1 2 4 -1
-1 -1 -1 -1 -1 -1 -1 -1 -1 2 -1 3 -1 -1 -1 1 3 1 5 4 2 0 -1 -1 -1 -1 3 0 1 4 2 -1 4 0 1 2 3 5 -1 -1 2 -1 4 5 0 1 3 -1 -1 3 0 1 4 -1 -1 2 -1 -1 -1 -1 -1 2 4 -1
-1 -1 -1 -1 -1 -1 -1 -1 -1 2 -1 3 5 -1 -1 1 3 1 5 4 2 0 -1 -1 -1 -1 3 0 1 4 2 -1 4 0 1 2 3 5 -1 -1 2 -1 4 5 0 1 3 -1 -1 3 0 1 4 -1 -1 2 -1 -1 -1 -1 -1 2 4 -1
-1 -1 -1 -1 -1 -1 -1 -1 -1 2 -1 3 5 -1 -1 1 3 1 5 4 2 0 -1 -1 -1 -1 3 0 1 4 2 -1 4 0 1 2 3 5 -1 -1 2 -1 4 5 0 1 3 -1 -1 3 0 1 4 -1 -1 2 5 -1 -1 -1 -1 2 4 -1
-1 -1 -1 -1 -1 -1 5 -1 -1 2 -1 3 5 -1 -1 1 3 1 5 4 2 0 -1 -1 -1 -1 3 0 1 4 2 -1 4 0 1 2 3 5 -1 -1 2 -1 4 5 0 1 3 -1 -1 3 0 1 4 -1 -1 2 5 -1 -1 -1 -1 2 4 -1
-1 -1 -1 -1 -1 -1 5 -1 -1 2 -1 3 5 -1 -1 1 3 1 5 4 2 0 -1 -1 -1 -1 3 0 1 4 2 5 4 0 1 2 3 5 -1 -1 2 -1 4 5 0 1 3 -1 -1 3 0 1 4 -1 -1 2 5 -1 -1 -1 -1 2 4 -1
-1 -1 -1 -1 -1 -1 5 -1 -1 2 -1 3 5 -1 -1 1 3 1 5 4 2 0 -1 -1 -1 -1 3 0 1 4 2 5 4 0 1 2 3 5 -1 -1 2 -1 4 5 0 1 3 -1 -1 3 0 1 4 6 -1 2 5 -1 -1 -1 -1 2 4 -1
-1 -1 -1 -1 -1 -1 5 -1 -1 2 -1 3 5 -1 -1 1 3 1 5 4 2 0 -1 -1 -1 -1 3 0 1 4 2 5 4 0 1 2 3 5 6 -1 2 -1 4 5 0 1 3 -1 -1 3 0 1 4 6 -1 2 5 -1 -1 -1 -1 2 4 -1
-1 -1 -1 -1 -1 -1 5 -1 -1 2 -1 3 5 -1 -1 1 3 1 5 4 2 0 -1 -1 -1 -1 3 0 1 4 2 5 4 0 1 2 3 5 6 -1 2 6 4 5 0 1 3 -1 -1 3 0 1 4 6 -1 2 5 -1 -1 -1 -1 2 4 -1
-1 -1 -1 -1 -1 -1 5 -1 -1 2 6 3 5 -1 -1 1 3 1 5 4 2 0 -1 -1 -1 -1 3 0 1 4 2 5 4 0 1 2 3 5 6 -1 2 6 4 5 0 1 3 -1 -1 3 0 1 4 6 -1 2 5 -1 -1 -1 -1 2 4 -1
-1 -1 -1 -1 -1 -1 5 -1 -1 2 6 3 5 -1 -1 1 3 1 5 4 2 0 -1 -1 -1 -1 3 0 1 4 2 5 4 0 1 2 3 5 6 -1 2 6 4 5 0 1 3 -1 -1 3 0 1 4 6 -1 2 5 -1 -1 -1 -1 2 4 6
-1 -1 -1 -1 6 -1 5 -1 -1 2 6 3 5 -1 -1 1 3 1 5 4 2 0 -1 -1 -1 -1 3 0 1 4 2 5 4 0 1 2 3 5 6 -1 2 6 4 5 0 1 3 -1 -1 3 0 1 4 6 -1 2 5 -1 -1 -1 -1 2 4 6
-1 -1 -1 -1 6 -1 5 -1 -1 2 6 3 5 7 -1 1 3 1 5 4 2 0 -1 -1 -1 -1 3 0 1 4 2 5 4 0 1 2 3 5 6 -1 2 6 4 5 0 1 3 -1 -1 3 0 1 4 6 -1 2 5 -1 -1 -1 -1 2 4 6
-1 -1 -1 -1 6 -1 5 -1 -1 2 6 3 5 7 -1 1 3 1 5 4 2 0 -1 -1 -1 -1 3 0 1 4 2 5 4 0 1 2 3 5 6 -1 2 6 4 5 0 1 3 -1 -1 3 0 1 4 6 7 2 5 -1 -1 -1 -1 2 4 6
-1 -1 -1 -1 6 -1 5 -1 -1 2 6 3 5 7 -1 1 3 1 5 4 2 0 -1 -1 -1 7 3 0 1 4 2 5 4 0 1 2 3 5 6 -1 2 6 4 5 0 1 3 -1 -1 3 0 1 4 6 7 2 5 -1 -1 -1 -1 2 4 6
-1 -1 -1 -1 6 -1 5 -1 -1 2 6 3 5 7 -1 1 3 1 5 4 2 0 -1 -1 -1 7 3 0 1 4 2 5 4 0 1 2 3 5 6 -1 2 6 4 5 0 1 3 -1 -1 3 0 1 4 6 7 2 5 -1 7 -1 -1 2 4 6
-1 -1 -1 7 6 -1 5 -1 -1 2 6 3 5 7 -1 1 3 1 5 4 2 0 -1 -1 -1 7 3 0 1 4 2 5 4 0 1 2 3 5 6 -1 2 6 4 5 0 1 3 -1 -1 3 0 1 4 6 7 2 5 -1 7 -1 -1 2 4 6
-1 -1 -1 7 6 -1 5 -1 -1 2 6 3 5 7 8 1 3 1 5 4 2 0 -1 -1 -1 7 3 0 1 4 2 5 4 0 1 2 3 5 6 -1 2 6 4 5 0 1 3 -1 -1 3 0 1 4 6 7 2 5 -1 7 -1 -1 2 4 6
-1 -1 -1 7 6 -1 5 -1 -1 2 6 3 5 7 8 1 3 1 5 4 2 0 -1 -1 -1 7 3 0 1 4 2 5 4 0 1 2 3 5 6 -1 2 6 4 5 0 1 3 -1 -1 3 0 1 4 6 7 2 5 8 7 -1 -1 2 4 6
-1 -1 8 7 6 -1 5 -1 -1 2 6 3 5 7 8 1 3 1 5 4 2 0 -1 -1 -1 7 3 0 1 4 2 5 4 0 1 2 3 5 6 -1 2 6 4 5 0 1 3 -1 -1 3 0 1 4 6 7 2 5 8 7 -1 -1 2 4 6
-1 -1 8 7 6 -1 5 -1 -1 2 6 3 5 7 8 1 3 1 5 4 2 0 -1 -1 8 7 3 0 1 4 2 5 4 0 1 2 3 5 6 -1 2 6 4 5 0 1 3 -1 -1 3 0 1 4 6 7 2 5 8 7 -1 -1 2 4 6
-1 -1 8 7 6 -1 5 -1 -1 2 6 3 5 7 8 1 3 1 5 4 2 0 -1 -1 8 7 3 0 1 4 2 5 4 0 1 2 3 5 6 8 2 6 4 5 0 1 3 -1 -1 3 0 1 4 6 7 2 5 8 7 -1 -1 2 4 6
-1 -1 8 7 6 -1 5 -1 -1 2 6 3 5 7 8 1 3 1 5 4 2 0 9 -1 8 7 3 0 1 4 2 5 4 0 1 2 3 5 6 8 2 6 4 5 0 1 3 -1 -1 3 0 1 4 6 7 2 5 8 7 -1 -1 2 4 6
-1 -1 8 7 6 -1 5 -1 -1 2 6 3 5 7 8 1 3 1 5 4 2 0 9 -1 8 7 3 0 1 4 2 5 4 0 1 2 3 5 6 8 2 6 4 5 0 1 3 -1 9 3 0 1 4 6 7 2 5 8 7 -1 -1 2 4 6
-1 -1 8 7 6 -1 5 -1 -1 2 6 3 5 7 8 1 3 1 5 4 2 0 9 -1 8 7 3 0 1 4 2 5 4 0 1 2 3 5 6 8 2 6 4 5 0 1 3 -1 9 3 0 1 4 6 7 2 5 8 7 9 -1 2 4 6
-1 9 8 7 6 -1 5 -1 -1 2 6 3 5 7 8 1 3 1 5 4 2 0 9 -1 8 7 3 0 1 4 2 5 4 0 1 2 3 5 6 8 2 6 4 5 0 1 3 -1 9 3 0 1 4 6 7 2 5 8 7 9 -1 2 4 6
-1 9 8 7 6 -1 5 -1 -1 2 6 3 5 7 8 1 3 1 5 4 2 0 9 -1 8 7 3 0 1 4 2 5 4 0 1 2 3 5 6 8 2 6 4 5 0 1 3 9 9 3 0 1 4 6 7 2 5 8 7 9 -1 2 4 6
-1 9 8 7 6 -1 5 -1 -1 2 6 3 5 7 8 1 3 1 5 4 2 0 9 -1 8 7 3 0 1 4 2 5 4 0 1 2 3 5 6 8 2 6 4 5 0 1 3 9 9 3 0 1 4 6 7 2 5 8 7 9 10 2 4 6
-1 9 8 7 6 10 5 -1 -1 2 6 3 5 7 8 1 3 1 5 4 2 0 9 -1 8 7 3 0 1 4 2 5 4 0 1 2 3 5 6 8 2 6 4 5 0 1 3 9 9 3 0 1 4 6 7 2 5 8 7 9 10 2 4 6
-1 9 8 7 6 10 5 -1 10 2 6 3 5 7 8 1 3 1 5 4 2 0 9 -1 8 7 3 0 1 4 2 5 4 0 1 2 3 5 6 8 2 6 4 5 0 1 3 9 9 3 0 1 4 6 7 2 5 8 7 9 10 2 4 6
-1 9 8 7 6 10 5 11 10 2 6 3 5 7 8 1 3 1 5 4 2 0 9 -1 8 7 3 0 1 4 2 5 4 0 1 2 3 5 6 8 2 6 4 5 0 1 3 9 9 3 0 1 4 6 7 2 5 8 7 9 10 2 4 6
-1 9 8 7 6 10 5 11 10 2 6 3 5 7 8 1 3 1 5 4 2 0 9 12 8 7 3 0 1 4 2 5 4 0 1 2 3 5 6 8 2 6 4 5 0 1 3 9 9 3 0 1 4 6 7 2 5 8 7 9 10 2 4 6
12 9 8 7 6 10 5 11 10 2 6 3 5 7 8 1 3 1 5 4 2 0 9 12 8 7 3 0 1 4 2 5 4 0 1 2 3 5 6 8 2 6 4 5 0 1 3 9 9 3 0 1 4 6 7 2 5 8 7 9 10 2 4 6
